Minimize
	value: tt

Subject to
tt + 1024 s_1_1 > 0.0
tt - t_1_1 - 1025.254649 s_1_1 + 1.254649 s_1_6 > -1023.443094
tt + 1024 s_2_1 > 0.0
tt - t_2_1 - 1025.734485 s_2_1 + 1.734485 s_2_6 > -1013.063800
tt + 1024 s_1_2 > 0.0
tt - t_1_2 - 1025.254649 s_1_2 + 1.254649 s_1_7 > -1023.358361
tt + 1024 s_2_2 > 0.0
tt - t_2_2 - 1025.734485 s_2_2 + 1.734485 s_2_7 > -1013.214400
tt + 1024 s_1_3 > 0.0
tt - t_1_3 - 1025.254649 s_1_3 + 1.254649 s_1_7 > -1023.199178
tt + 1024 s_2_3 > 0.0
tt - t_2_3 - 1025.734485 s_2_3 + 1.734485 s_2_7 > -1009.725000
tt + 1024 s_1_4 > 0.0
tt - t_1_4 - 1026.353909 s_1_4 + 2.353909 s_1_7 > -1023.598839
tt + 1024 s_2_4 > 0.0
tt - t_2_4 - 1027.206420 s_2_4 + 3.206420 s_2_7 > -1013.119000
tt + 1024 s_1_5 > 0.0
tt - t_1_5 - 1026.509297 s_1_5 + 2.509297 s_1_7 > -1023.355323
tt + 1024 s_2_5 > 0.0
tt - t_2_5 - 1027.468971 s_2_5 + 3.468971 s_2_7 > -1013.204000
tt + 1024 s_1_6 > 0.0
tt - t_1_6 - 1024.000000 s_1_6 > -1022.528900
tt + 1024 s_2_6 > 0.0
tt - t_2_6 - 1024.000000 s_2_6 > -1020.367300
tt + 1024 s_1_7 > 0.0
tt - t_1_7 - 1024.000000 s_1_7 > -1022.240544
tt + 1024 s_2_7 > 0.0
tt - t_2_7 - 1024.000000 s_2_7 > -1019.084800
tt + 1024 s_1_8 > 0.0
tt - t_1_8 - 1037.740758 s_1_8 + 13.740758 s_1_1 > -1023.835300
tt + 1024 s_2_8 > 0.0
tt - t_2_8 - 1042.399185 s_2_8 + 18.399185 s_2_1 > -1022.658800
s_1_1 + s_2_1  = 1
s_1_2 + s_2_2  = 1
s_1_3 + s_2_3  = 1
s_1_4 + s_2_4  = 1
s_1_5 + s_2_5  = 1
s_1_6 + s_2_6  = 1
s_1_7 + s_2_7  = 1
s_1_8 + s_2_8  = 1
s_1_1 + s_1_2 + 1024 r_1_1_2 >= 2
- s_1_1 - s_1_2 - 1024 r_1_1_2 >= -1025
t_1_1 - t_1_2 - 1024.000000 u_1_1_2 - 1.254649 s_1_2 + 1.254649 s_1_7 + 2048.000000 r_1_1_2 > -1023.358361
s_2_1 + s_2_2 + 1024 r_2_1_2 >= 2
- s_2_1 - s_2_2 - 1024 r_2_1_2 >= -1025
t_2_1 - t_2_2 - 1024.000000 u_2_1_2 - 1.734485 s_2_2 + 1.734485 s_2_7 + 2048.000000 r_2_1_2 > -1013.214400
s_1_1 + s_1_3 + 1024 r_1_1_3 >= 2
- s_1_1 - s_1_3 - 1024 r_1_1_3 >= -1025
t_1_1 - t_1_3 - 1024.000000 u_1_1_3 - 1.254649 s_1_3 + 1.254649 s_1_7 + 2048.000000 r_1_1_3 > -1023.199178
s_2_1 + s_2_3 + 1024 r_2_1_3 >= 2
- s_2_1 - s_2_3 - 1024 r_2_1_3 >= -1025
t_2_1 - t_2_3 - 1024.000000 u_2_1_3 - 1.734485 s_2_3 + 1.734485 s_2_7 + 2048.000000 r_2_1_3 > -1009.725000
s_1_1 + s_1_4 + 1024 r_1_1_4 >= 2
- s_1_1 - s_1_4 - 1024 r_1_1_4 >= -1025
t_1_1 - t_1_4 - 1024.000000 u_1_1_4 - 1.176955 s_1_4 + 1.176955 s_1_7 + 2048.000000 r_1_1_4 > -1023.598839
s_2_1 + s_2_4 + 1024 r_2_1_4 >= 2
- s_2_1 - s_2_4 - 1024 r_2_1_4 >= -1025
t_2_1 - t_2_4 - 1024.000000 u_2_1_4 - 1.603210 s_2_4 + 1.603210 s_2_7 + 2048.000000 r_2_1_4 > -1013.119000
s_1_1 + s_1_5 + 1024 r_1_1_5 >= 2
- s_1_1 - s_1_5 - 1024 r_1_1_5 >= -1025
t_1_1 - t_1_5 - 1024.000000 u_1_1_5 - 1.254649 s_1_5 + 1.254649 s_1_7 + 2048.000000 r_1_1_5 > -1023.355323
s_2_1 + s_2_5 + 1024 r_2_1_5 >= 2
- s_2_1 - s_2_5 - 1024 r_2_1_5 >= -1025
t_2_1 - t_2_5 - 1024.000000 u_2_1_5 - 1.734485 s_2_5 + 1.734485 s_2_7 + 2048.000000 r_2_1_5 > -1013.204000
t_1_1 - t_1_6 - 1024.000000 s_1_6 > -1022.528900
t_1_1 - t_2_6 - 1024.000000 s_2_6 > -1020.367300
t_2_1 - t_1_6 - 1024.000000 s_1_6 > -1022.528900
t_2_1 - t_2_6 - 1024.000000 s_2_6 > -1020.367300
s_1_1 + s_1_7 + 1024 r_1_1_7 >= 2
- s_1_1 - s_1_7 - 1024 r_1_1_7 >= -1025
t_1_1 - t_1_7 - 1024.000000 u_1_1_7 + 2048.000000 r_1_1_7 > -1022.240544
s_2_1 + s_2_7 + 1024 r_2_1_7 >= 2
- s_2_1 - s_2_7 - 1024 r_2_1_7 >= -1025
t_2_1 - t_2_7 - 1024.000000 u_2_1_7 + 2048.000000 r_2_1_7 > -1019.084800
t_1_8 - t_1_1 - 1.811554 s_1_1 + 1.254649 s_1_6 > 0.0
t_1_8 - t_2_1 - 12.670685 s_2_1 + 1.734485 s_2_6 > 0.0
t_2_8 - t_1_1 - 1.811554 s_1_1 + 1.254649 s_1_6 > 0.0
t_2_8 - t_2_1 - 12.670685 s_2_1 + 1.734485 s_2_6 > 0.0
s_1_2 + s_1_1 + 1024 r_1_1_2 >= 2
- s_1_2 - s_1_1 - 1024 r_1_1_2 >= -1025
t_1_2 - t_1_1 + 1024.000000 u_1_1_2 - 1.254649 s_1_1 + 1.254649 s_1_6 + 2048.000000 r_1_1_2 > 0.556906
s_2_2 + s_2_1 + 1024 r_2_1_2 >= 2
- s_2_2 - s_2_1 - 1024 r_2_1_2 >= -1025
t_2_2 - t_2_1 + 1024.000000 u_2_1_2 - 1.734485 s_2_1 + 1.734485 s_2_6 + 2048.000000 r_2_1_2 > 10.936200
s_1_2 + s_1_3 + 1024 r_1_2_3 >= 2
- s_1_2 - s_1_3 - 1024 r_1_2_3 >= -1025
t_1_2 - t_1_3 - 1024.000000 u_1_2_3 - 1.254649 s_1_3 + 1.254649 s_1_7 + 2048.000000 r_1_2_3 > -1023.199178
s_2_2 + s_2_3 + 1024 r_2_2_3 >= 2
- s_2_2 - s_2_3 - 1024 r_2_2_3 >= -1025
t_2_2 - t_2_3 - 1024.000000 u_2_2_3 - 1.734485 s_2_3 + 1.734485 s_2_7 + 2048.000000 r_2_2_3 > -1009.725000
s_1_2 + s_1_4 + 1024 r_1_2_4 >= 2
- s_1_2 - s_1_4 - 1024 r_1_2_4 >= -1025
t_1_2 - t_1_4 - 1024.000000 u_1_2_4 - 1.176955 s_1_4 + 1.176955 s_1_7 + 2048.000000 r_1_2_4 > -1023.598839
s_2_2 + s_2_4 + 1024 r_2_2_4 >= 2
- s_2_2 - s_2_4 - 1024 r_2_2_4 >= -1025
t_2_2 - t_2_4 - 1024.000000 u_2_2_4 - 1.603210 s_2_4 + 1.603210 s_2_7 + 2048.000000 r_2_2_4 > -1013.119000
s_1_2 + s_1_5 + 1024 r_1_2_5 >= 2
- s_1_2 - s_1_5 - 1024 r_1_2_5 >= -1025
t_1_2 - t_1_5 - 1024.000000 u_1_2_5 - 1.254649 s_1_5 + 1.254649 s_1_7 + 2048.000000 r_1_2_5 > -1023.355323
s_2_2 + s_2_5 + 1024 r_2_2_5 >= 2
- s_2_2 - s_2_5 - 1024 r_2_2_5 >= -1025
t_2_2 - t_2_5 - 1024.000000 u_2_2_5 - 1.734485 s_2_5 + 1.734485 s_2_7 + 2048.000000 r_2_2_5 > -1013.204000
s_1_2 + s_1_6 + 1024 r_1_2_6 >= 2
- s_1_2 - s_1_6 - 1024 r_1_2_6 >= -1025
t_1_2 - t_1_6 - 1024.000000 u_1_2_6 + 2048.000000 r_1_2_6 > -1022.528900
s_2_2 + s_2_6 + 1024 r_2_2_6 >= 2
- s_2_2 - s_2_6 - 1024 r_2_2_6 >= -1025
t_2_2 - t_2_6 - 1024.000000 u_2_2_6 + 2048.000000 r_2_2_6 > -1020.367300
t_1_2 - t_1_7 - 1024.000000 s_1_7 > -1022.240544
t_1_2 - t_2_7 - 1024.000000 s_2_7 > -1019.084800
t_2_2 - t_1_7 - 1024.000000 s_1_7 > -1022.240544
t_2_2 - t_2_7 - 1024.000000 s_2_7 > -1019.084800
t_1_8 - t_1_2 - 1.896288 s_1_2 + 1.254649 s_1_7 > 0.0
t_1_8 - t_2_2 - 12.520085 s_2_2 + 1.734485 s_2_7 > 0.0
t_2_8 - t_1_2 - 1.896288 s_1_2 + 1.254649 s_1_7 > 0.0
t_2_8 - t_2_2 - 12.520085 s_2_2 + 1.734485 s_2_7 > 0.0
s_1_3 + s_1_1 + 1024 r_1_1_3 >= 2
- s_1_3 - s_1_1 - 1024 r_1_1_3 >= -1025
t_1_3 - t_1_1 + 1024.000000 u_1_1_3 - 1.254649 s_1_1 + 1.254649 s_1_6 + 2048.000000 r_1_1_3 > 0.556906
s_2_3 + s_2_1 + 1024 r_2_1_3 >= 2
- s_2_3 - s_2_1 - 1024 r_2_1_3 >= -1025
t_2_3 - t_2_1 + 1024.000000 u_2_1_3 - 1.734485 s_2_1 + 1.734485 s_2_6 + 2048.000000 r_2_1_3 > 10.936200
s_1_3 + s_1_2 + 1024 r_1_2_3 >= 2
- s_1_3 - s_1_2 - 1024 r_1_2_3 >= -1025
t_1_3 - t_1_2 + 1024.000000 u_1_2_3 - 1.254649 s_1_2 + 1.254649 s_1_7 + 2048.000000 r_1_2_3 > 0.641639
s_2_3 + s_2_2 + 1024 r_2_2_3 >= 2
- s_2_3 - s_2_2 - 1024 r_2_2_3 >= -1025
t_2_3 - t_2_2 + 1024.000000 u_2_2_3 - 1.734485 s_2_2 + 1.734485 s_2_7 + 2048.000000 r_2_2_3 > 10.785600
t_1_4 - t_1_3 - 2.055471 s_1_3 + 1.254649 s_1_7 > 0.0
t_1_4 - t_2_3 - 16.009485 s_2_3 + 1.734485 s_2_7 > 0.0
t_2_4 - t_1_3 - 2.055471 s_1_3 + 1.254649 s_1_7 > 0.0
t_2_4 - t_2_3 - 16.009485 s_2_3 + 1.734485 s_2_7 > 0.0
s_1_3 + s_1_5 + 1024 r_1_3_5 >= 2
- s_1_3 - s_1_5 - 1024 r_1_3_5 >= -1025
t_1_3 - t_1_5 - 1024.000000 u_1_3_5 - 1.254649 s_1_5 + 1.254649 s_1_7 + 2048.000000 r_1_3_5 > -1023.355323
s_2_3 + s_2_5 + 1024 r_2_3_5 >= 2
- s_2_3 - s_2_5 - 1024 r_2_3_5 >= -1025
t_2_3 - t_2_5 - 1024.000000 u_2_3_5 - 1.734485 s_2_5 + 1.734485 s_2_7 + 2048.000000 r_2_3_5 > -1013.204000
s_1_3 + s_1_6 + 1024 r_1_3_6 >= 2
- s_1_3 - s_1_6 - 1024 r_1_3_6 >= -1025
t_1_3 - t_1_6 - 1024.000000 u_1_3_6 + 2048.000000 r_1_3_6 > -1022.528900
s_2_3 + s_2_6 + 1024 r_2_3_6 >= 2
- s_2_3 - s_2_6 - 1024 r_2_3_6 >= -1025
t_2_3 - t_2_6 - 1024.000000 u_2_3_6 + 2048.000000 r_2_3_6 > -1020.367300
t_1_3 - t_1_7 - 1024.000000 s_1_7 > -1022.240544
t_1_3 - t_2_7 - 1024.000000 s_2_7 > -1019.084800
t_2_3 - t_1_7 - 1024.000000 s_1_7 > -1022.240544
t_2_3 - t_2_7 - 1024.000000 s_2_7 > -1019.084800
t_1_8 - t_1_3 - 2.055471 s_1_3 + 1.254649 s_1_7 > 0.0
t_1_8 - t_2_3 - 16.009485 s_2_3 + 1.734485 s_2_7 > 0.0
t_2_8 - t_1_3 - 2.055471 s_1_3 + 1.254649 s_1_7 > 0.0
t_2_8 - t_2_3 - 16.009485 s_2_3 + 1.734485 s_2_7 > 0.0
s_1_4 + s_1_1 + 1024 r_1_1_4 >= 2
- s_1_4 - s_1_1 - 1024 r_1_1_4 >= -1025
t_1_4 - t_1_1 + 1024.000000 u_1_1_4 - 1.254649 s_1_1 + 1.254649 s_1_6 + 2048.000000 r_1_1_4 > 0.556906
s_2_4 + s_2_1 + 1024 r_2_1_4 >= 2
- s_2_4 - s_2_1 - 1024 r_2_1_4 >= -1025
t_2_4 - t_2_1 + 1024.000000 u_2_1_4 - 1.734485 s_2_1 + 1.734485 s_2_6 + 2048.000000 r_2_1_4 > 10.936200
s_1_4 + s_1_2 + 1024 r_1_2_4 >= 2
- s_1_4 - s_1_2 - 1024 r_1_2_4 >= -1025
t_1_4 - t_1_2 + 1024.000000 u_1_2_4 - 1.254649 s_1_2 + 1.254649 s_1_7 + 2048.000000 r_1_2_4 > 0.641639
s_2_4 + s_2_2 + 1024 r_2_2_4 >= 2
- s_2_4 - s_2_2 - 1024 r_2_2_4 >= -1025
t_2_4 - t_2_2 + 1024.000000 u_2_2_4 - 1.734485 s_2_2 + 1.734485 s_2_7 + 2048.000000 r_2_2_4 > 10.785600
s_1_4 + s_1_5 + 1024 r_1_4_5 >= 2
- s_1_4 - s_1_5 - 1024 r_1_4_5 >= -1025
t_1_4 - t_1_5 - 1024.000000 u_1_4_5 - 1.254649 s_1_5 + 1.254649 s_1_7 + 2048.000000 r_1_4_5 > -1023.355323
s_2_4 + s_2_5 + 1024 r_2_4_5 >= 2
- s_2_4 - s_2_5 - 1024 r_2_4_5 >= -1025
t_2_4 - t_2_5 - 1024.000000 u_2_4_5 - 1.734485 s_2_5 + 1.734485 s_2_7 + 2048.000000 r_2_4_5 > -1013.204000
s_1_4 + s_1_6 + 1024 r_1_4_6 >= 2
- s_1_4 - s_1_6 - 1024 r_1_4_6 >= -1025
t_1_4 - t_1_6 - 1024.000000 u_1_4_6 + 2048.000000 r_1_4_6 > -1022.528900
s_2_4 + s_2_6 + 1024 r_2_4_6 >= 2
- s_2_4 - s_2_6 - 1024 r_2_4_6 >= -1025
t_2_4 - t_2_6 - 1024.000000 u_2_4_6 + 2048.000000 r_2_4_6 > -1020.367300
t_1_4 - t_1_7 - 1024.000000 s_1_7 > -1022.240544
t_1_4 - t_2_7 - 1024.000000 s_2_7 > -1019.084800
t_2_4 - t_1_7 - 1024.000000 s_1_7 > -1022.240544
t_2_4 - t_2_7 - 1024.000000 s_2_7 > -1019.084800
t_1_8 - t_1_4 - 1.578116 s_1_4 + 1.176955 s_1_7 > 0.0
t_1_8 - t_2_4 - 12.484210 s_2_4 + 1.603210 s_2_7 > 0.0
t_2_8 - t_1_4 - 1.578116 s_1_4 + 1.176955 s_1_7 > 0.0
t_2_8 - t_2_4 - 12.484210 s_2_4 + 1.603210 s_2_7 > 0.0
s_1_5 + s_1_1 + 1024 r_1_1_5 >= 2
- s_1_5 - s_1_1 - 1024 r_1_1_5 >= -1025
t_1_5 - t_1_1 + 1024.000000 u_1_1_5 - 1.254649 s_1_1 + 1.254649 s_1_6 + 2048.000000 r_1_1_5 > 0.556906
s_2_5 + s_2_1 + 1024 r_2_1_5 >= 2
- s_2_5 - s_2_1 - 1024 r_2_1_5 >= -1025
t_2_5 - t_2_1 + 1024.000000 u_2_1_5 - 1.734485 s_2_1 + 1.734485 s_2_6 + 2048.000000 r_2_1_5 > 10.936200
s_1_5 + s_1_2 + 1024 r_1_2_5 >= 2
- s_1_5 - s_1_2 - 1024 r_1_2_5 >= -1025
t_1_5 - t_1_2 + 1024.000000 u_1_2_5 - 1.254649 s_1_2 + 1.254649 s_1_7 + 2048.000000 r_1_2_5 > 0.641639
s_2_5 + s_2_2 + 1024 r_2_2_5 >= 2
- s_2_5 - s_2_2 - 1024 r_2_2_5 >= -1025
t_2_5 - t_2_2 + 1024.000000 u_2_2_5 - 1.734485 s_2_2 + 1.734485 s_2_7 + 2048.000000 r_2_2_5 > 10.785600
s_1_5 + s_1_3 + 1024 r_1_3_5 >= 2
- s_1_5 - s_1_3 - 1024 r_1_3_5 >= -1025
t_1_5 - t_1_3 + 1024.000000 u_1_3_5 - 1.254649 s_1_3 + 1.254649 s_1_7 + 2048.000000 r_1_3_5 > 0.800822
s_2_5 + s_2_3 + 1024 r_2_3_5 >= 2
- s_2_5 - s_2_3 - 1024 r_2_3_5 >= -1025
t_2_5 - t_2_3 + 1024.000000 u_2_3_5 - 1.734485 s_2_3 + 1.734485 s_2_7 + 2048.000000 r_2_3_5 > 14.275000
s_1_5 + s_1_4 + 1024 r_1_4_5 >= 2
- s_1_5 - s_1_4 - 1024 r_1_4_5 >= -1025
t_1_5 - t_1_4 + 1024.000000 u_1_4_5 - 1.176955 s_1_4 + 1.176955 s_1_7 + 2048.000000 r_1_4_5 > 0.401161
s_2_5 + s_2_4 + 1024 r_2_4_5 >= 2
- s_2_5 - s_2_4 - 1024 r_2_4_5 >= -1025
t_2_5 - t_2_4 + 1024.000000 u_2_4_5 - 1.603210 s_2_4 + 1.603210 s_2_7 + 2048.000000 r_2_4_5 > 10.881000
t_1_5 - t_1_6 - 1024.000000 s_1_6 > -1022.528900
t_1_5 - t_2_6 - 1024.000000 s_2_6 > -1020.367300
t_2_5 - t_1_6 - 1024.000000 s_1_6 > -1022.528900
t_2_5 - t_2_6 - 1024.000000 s_2_6 > -1020.367300
t_1_5 - t_1_7 - 1024.000000 s_1_7 > -1022.240544
t_1_5 - t_2_7 - 1024.000000 s_2_7 > -1019.084800
t_2_5 - t_1_7 - 1024.000000 s_1_7 > -1022.240544
t_2_5 - t_2_7 - 1024.000000 s_2_7 > -1019.084800
t_1_8 - t_1_5 - 1.899326 s_1_5 + 1.254649 s_1_7 > 0.0
t_1_8 - t_2_5 - 12.530485 s_2_5 + 1.734485 s_2_7 > 0.0
t_2_8 - t_1_5 - 1.899326 s_1_5 + 1.254649 s_1_7 > 0.0
t_2_8 - t_2_5 - 12.530485 s_2_5 + 1.734485 s_2_7 > 0.0
s_1_6 + s_1_2 + 1024 r_1_2_6 >= 2
- s_1_6 - s_1_2 - 1024 r_1_2_6 >= -1025
t_1_6 - t_1_2 + 1024.000000 u_1_2_6 - 1.254649 s_1_2 + 1.254649 s_1_7 + 2048.000000 r_1_2_6 > 0.641639
s_2_6 + s_2_2 + 1024 r_2_2_6 >= 2
- s_2_6 - s_2_2 - 1024 r_2_2_6 >= -1025
t_2_6 - t_2_2 + 1024.000000 u_2_2_6 - 1.734485 s_2_2 + 1.734485 s_2_7 + 2048.000000 r_2_2_6 > 10.785600
s_1_6 + s_1_3 + 1024 r_1_3_6 >= 2
- s_1_6 - s_1_3 - 1024 r_1_3_6 >= -1025
t_1_6 - t_1_3 + 1024.000000 u_1_3_6 - 1.254649 s_1_3 + 1.254649 s_1_7 + 2048.000000 r_1_3_6 > 0.800822
s_2_6 + s_2_3 + 1024 r_2_3_6 >= 2
- s_2_6 - s_2_3 - 1024 r_2_3_6 >= -1025
t_2_6 - t_2_3 + 1024.000000 u_2_3_6 - 1.734485 s_2_3 + 1.734485 s_2_7 + 2048.000000 r_2_3_6 > 14.275000
s_1_6 + s_1_4 + 1024 r_1_4_6 >= 2
- s_1_6 - s_1_4 - 1024 r_1_4_6 >= -1025
t_1_6 - t_1_4 + 1024.000000 u_1_4_6 - 1.176955 s_1_4 + 1.176955 s_1_7 + 2048.000000 r_1_4_6 > 0.401161
s_2_6 + s_2_4 + 1024 r_2_4_6 >= 2
- s_2_6 - s_2_4 - 1024 r_2_4_6 >= -1025
t_2_6 - t_2_4 + 1024.000000 u_2_4_6 - 1.603210 s_2_4 + 1.603210 s_2_7 + 2048.000000 r_2_4_6 > 10.881000
s_1_6 + s_1_7 + 1024 r_1_6_7 >= 2
- s_1_6 - s_1_7 - 1024 r_1_6_7 >= -1025
t_1_6 - t_1_7 - 1024.000000 u_1_6_7 + 2048.000000 r_1_6_7 > -1022.240544
s_2_6 + s_2_7 + 1024 r_2_6_7 >= 2
- s_2_6 - s_2_7 - 1024 r_2_6_7 >= -1025
t_2_6 - t_2_7 - 1024.000000 u_2_6_7 + 2048.000000 r_2_6_7 > -1019.084800
s_1_7 + s_1_1 + 1024 r_1_1_7 >= 2
- s_1_7 - s_1_1 - 1024 r_1_1_7 >= -1025
t_1_7 - t_1_1 + 1024.000000 u_1_1_7 - 1.254649 s_1_1 + 1.254649 s_1_6 + 2048.000000 r_1_1_7 > 0.556906
s_2_7 + s_2_1 + 1024 r_2_1_7 >= 2
- s_2_7 - s_2_1 - 1024 r_2_1_7 >= -1025
t_2_7 - t_2_1 + 1024.000000 u_2_1_7 - 1.734485 s_2_1 + 1.734485 s_2_6 + 2048.000000 r_2_1_7 > 10.936200
s_1_7 + s_1_6 + 1024 r_1_6_7 >= 2
- s_1_7 - s_1_6 - 1024 r_1_6_7 >= -1025
t_1_7 - t_1_6 + 1024.000000 u_1_6_7 + 2048.000000 r_1_6_7 > 1.471100
s_2_7 + s_2_6 + 1024 r_2_6_7 >= 2
- s_2_7 - s_2_6 - 1024 r_2_6_7 >= -1025
t_2_7 - t_2_6 + 1024.000000 u_2_6_7 + 2048.000000 r_2_6_7 > 3.632700
Binary
s_1_1
s_2_1
s_1_2
s_2_2
s_1_3
s_2_3
s_1_4
s_2_4
s_1_5
s_2_5
s_1_6
s_2_6
s_1_7
s_2_7
s_1_8
s_2_8
u_1_1_2
r_1_1_2
u_2_1_2
r_2_1_2
u_1_1_3
r_1_1_3
u_2_1_3
r_2_1_3
u_1_1_4
r_1_1_4
u_2_1_4
r_2_1_4
u_1_1_5
r_1_1_5
u_2_1_5
r_2_1_5
u_1_1_7
r_1_1_7
u_2_1_7
r_2_1_7
u_1_2_3
r_1_2_3
u_2_2_3
r_2_2_3
u_1_2_4
r_1_2_4
u_2_2_4
r_2_2_4
u_1_2_5
r_1_2_5
u_2_2_5
r_2_2_5
u_1_2_6
r_1_2_6
u_2_2_6
r_2_2_6
u_1_3_5
r_1_3_5
u_2_3_5
r_2_3_5
u_1_3_6
r_1_3_6
u_2_3_6
r_2_3_6
u_1_4_5
r_1_4_5
u_2_4_5
r_2_4_5
u_1_4_6
r_1_4_6
u_2_4_6
r_2_4_6
u_1_6_7
r_1_6_7
u_2_6_7
r_2_6_7

End
